NAME : CHRVRP
COMMENT : master instance for CHRVRP
EDGE_WEIGHT_TYPE : EUC_2D
NODE_COORD_SECTION
V100 40.769e+03 71.077e+03
V101 5.537e+03 96.579e+03
V102 78.853e+03 0.422e+03
S0 50.837e+03 68.389e+03
S1 66.390e+03 40.535e+03
D10 30.793e+03 17.975e+03
D11 51.939e+03 53.883e+03
D12 76.830e+03 28.277e+03
D13 78.922e+03 76.094e+03
D14 87.056e+03 26.969e+03
D15 18.792e+03 29.352e+03
D16 26.951e+03 96.241e+03
D17 49.619e+03 91.321e+03
D18 73.912e+03 56.817e+03
D19 19.495e+03 48.549e+03
EOF
